263
187
281
282
323
218
245
193
387
419
189
240
393
344
184
293
199
296
311
186
292
274
240
248
291
155
194
407
326
308
281
230
415
198
262
244
610
398
420
402
468
211
266
241
344
342
432
192
261
229
329
188
412
227
241
312
161
320
245
370
309
165
372
207
206
236
282
291
126
398
213
310
435
248
361
231
388
540
269
362
162
187
208
245
368
220
205
191
231
184
585
370
195
383
193
330
254
213
653
443
